NAME : instances/20-120-tsp/instance-20.tsp
COMMENT : No Comment
TYPE : TSP
DIMENSION: 20
EDGE_WEIGHT_TYPE : EUC_2D
NODE_COORD_SECTION
1 8280 7699 
2 8730 1358 
3 5836 6221 
4 2139 3730 
5 8926 8834 
6 25 2937 
7 8327 8200 
8 663 4259 
9 4923 3466 
10 7452 7828 
11 2714 2739 
12 7893 3562 
13 3444 2364 
14 7324 1152 
15 8465 5178 
16 3120 1977 
17 7842 1349 
18 5948 4748 
19 3271 2408 
20 246 4640 
EOF
